objective value:                                  -81
t_x10                                               1 	(obj:-100)
t_y10_313                                           1 	(obj:1)
t_y10_146                                           1 	(obj:1)
t_y10_99                                            1 	(obj:1)
t_y10_217                                           1 	(obj:1)
t_y10_253                                           1 	(obj:1)
t_y10_271                                           1 	(obj:1)
t_y10_248                                           1 	(obj:1)
t_y10_267                                           1 	(obj:1)
t_y4_10                                             1 	(obj:1)
t_y10_301                                           1 	(obj:1)
t_y10_33                                            1 	(obj:1)
t_y10_22                                            1 	(obj:1)
t_y10_327                                           1 	(obj:1)
t_y10_54                                            1 	(obj:1)
t_y10_213                                           1 	(obj:1)
t_y10_356                                           1 	(obj:1)
t_y10_245                                           1 	(obj:1)
t_y10_120                                           1 	(obj:1)
t_y10_242                                           1 	(obj:1)
